%nprocshared=4
%mem=8GB
# UwB97XD/Def2TZVP  

something title

0 1
N -0.492703 -0.176399 -1.290654
C -0.446398 -0.892489 -0.218936
N -1.547077 -1.130300 0.503818
N -2.633374 -1.313615 0.762955
O 3.064329 -1.353428 -0.325618
N 1.873959 -1.325963 -0.240593
C 0.814375 -1.260343 0.425376
H -1.402164 0.202784 -1.551814
H 0.745128 -1.562213 1.457786

