%nprocshared=4
%mem=8GB
# UwB97XD/Def2TZVP  

something title

0 1
N -0.509028 -0.158430 -1.287226
C -0.444455 -0.860516 -0.208187
N -1.534278 -1.091244 0.539347
N -2.626794 -1.405144 0.708360
O 3.068692 -1.409583 -0.282987
N 1.855595 -1.365074 -0.294385
C 0.821281 -1.218083 0.423889
H -1.420927 0.221795 -1.538319
H 0.765988 -1.525686 1.461829

