%nprocshared=4
%mem=8GB
#opt=(calcall, ts, noeigen, nomicro, maxstep=15) UwB97XD/Def2TZVP 

something title

0 1
N -0.60972 1.86276 -0.01656
C 0.05625 0.88677 -0.11504
N -2.35192 -0.58947 0.09671
N -3.34840 -1.02676 0.02131
O 2.97791 -0.93657 0.08588
N 2.25842 0.04274 0.10391
C 0.80439 -0.22675 -0.19979
H -1.06601 2.69039 0.37234
H 0.44020 -1.18287 -0.60801

