%nprocshared=4
%mem=8GB
# UwB97XD/Def2TZVP  

something title

0 1
N -0.522097 -0.147379 -1.274106
C -0.436225 -0.846620 -0.195914
N -1.537924 -1.141166 0.499024
N -2.632174 -1.318175 0.755400
O 3.052940 -1.427127 -0.195912
N 1.866373 -1.290605 -0.334111
C 0.827443 -1.238364 0.396129
H -1.444305 0.163404 -1.559281
H 0.802044 -1.565933 1.431091

