%nprocshared=4
%mem=8GB
# UwB97XD/Def2TZVP  

something title

0 1
N -0.496902 -0.172253 -1.288290
C -0.444945 -0.885937 -0.215647
N -1.545770 -1.131852 0.503133
N -2.633202 -1.314266 0.761875
O 3.062702 -1.363956 -0.307089
N 1.872876 -1.320912 -0.253953
C 0.816241 -1.257204 0.421198
H -1.408184 0.197159 -1.552881
H 0.753259 -1.562744 1.453972

