%nprocshared=4
%mem=8GB
# UwB97XD/Def2TZVP  

something title

0 1
N -0.499906 -0.168259 -1.289800
C -0.445964 -0.877639 -0.214426
N -1.540548 -1.107912 0.523861
N -2.629794 -1.364175 0.733104
O 3.067476 -1.379946 -0.310169
N 1.864239 -1.349936 -0.264540
C 0.817382 -1.238261 0.426407
H -1.409912 0.215846 -1.543843
H 0.753103 -1.541684 1.461727

