%nprocshared=4
%mem=8GB
# UwB97XD/Def2TZVP  

something title

0 1
N -0.506747 -0.160887 -1.287870
C -0.444832 -0.864796 -0.209747
N -1.535846 -1.095411 0.535475
N -2.627544 -1.394901 0.714546
O 3.068388 -1.402174 -0.289783
N 1.857756 -1.361289 -0.286924
C 0.820306 -1.223128 0.424518
H -1.418173 0.220308 -1.539700
H 0.762766 -1.529685 1.461804

