%nprocshared=4
%mem=8GB
#irc=(reverse, calcfc, maxpoint=100, stepsize=5) UwB97XD/Def2TZVP 

something title

0 1
N -0.43518 2.31935 -0.03234
C -0.99198 1.29834 0.01265
N 2.54041 0.18444 0.01489
N 2.99117 -0.80533 0.01436
O -1.42865 -2.06909 -0.01431
N -0.83375 -1.00950 -0.05995
C -1.63173 0.11482 0.06062
H 0.03941 3.18961 -0.07069
H -2.70649 0.06141 0.18682

