%nprocshared=4
%mem=8GB
# UwB97XD/Def2TZVP  

something title

0 1
N -0.501101 -0.168108 -1.285926
C -0.443491 -0.879384 -0.212358
N -1.544462 -1.133404 0.502448
N -2.633031 -1.314918 0.760796
O 3.061075 -1.374484 -0.288559
N 1.871792 -1.315861 -0.267312
C 0.818108 -1.254064 0.417020
H -1.414204 0.191533 -1.553947
H 0.761389 -1.563276 1.450159

